p cnf 20 20
-16 15 -7 0
10 9 -6 0
6 -11 -8 0
9 20 6 0
11 8 1 0
-3 8 -14 0
9 -8 -3 0
8 10 -16 0
-4 -9 -13 0
-1 3 17 0
2 16 3 0
-5 1 20 0
6 -19 1 0
-18 4 -3 0
14 1 -17 0
19 2 7 0
15 -19 -7 0
3 15 11 0
18 2 14 0
7 -17 20 0
